LibMLKEM/why3-cvc5/mlkem.adb_2052_27_range_check_1.smt2
;; produced by cvc5.drv ;;
(set-logic ALL)
(set-info :smt-lib-version 2.6)
;;; generated by SMT-LIB2 driver
;;; SMT-LIB2 driver: bit-vectors, common part
;;; SMT-LIB2: integer arithmetic
;; "pow2"
(declare-fun pow2 (Int) Int)

(declare-const two_power_size_minus_one Int)

;; "two_power_size_minus_one_val"
(assert (= two_power_size_minus_one (pow2 (- 8 1))))

;; "min"
(define-fun min ((x Int) (y Int)) Int
  (ite (<= x y) x y))

;; "max"
(define-fun max ((x Int) (y Int)) Int
  (ite (<= x y) y x))

;; "Min_r"
(assert (forall ((x Int) (y Int)) (=> (<= y x) (= (min x y) y))))

;; "Max_l"
(assert (forall ((x Int) (y Int)) (=> (<= y x) (= (max x y) x))))

;; "Min_comm"
(assert (forall ((x Int) (y Int)) (= (min x y) (min y x))))

;; "Max_comm"
(assert (forall ((x Int) (y Int)) (= (max x y) (max y x))))

;; "Min_assoc"
(assert
  (forall ((x Int) (y Int) (z Int)) (= (min (min x y) z) (min x (min y z)))))

;; "Max_assoc"
(assert
  (forall ((x Int) (y Int) (z Int)) (= (max (max x y) z) (max x (max y z)))))

(declare-sort byte 0)

;; "to_rep"
(declare-fun to_rep (byte) (_ BitVec 8))

;; "of_rep"
(declare-fun of_rep ((_ BitVec 8)) byte)

;; "inversion_axiom"
(assert
  (forall ((x byte)) (! (= (of_rep (to_rep x)) x) :pattern ((to_rep x)) )))

;; "range_axiom"
(assert true)

;; "coerce_axiom"
(assert
  (forall ((x (_ BitVec 8)))
    (! (= (to_rep (of_rep x)) x) :pattern ((to_rep (of_rep x))) )))

(declare-sort map1 0)

;; "has_bounds"
(declare-fun has_bounds (map1
  Int
  Int) Bool)

;; "get"
(declare-fun get (map1
  Int) byte)

;; "slide"
(declare-fun slide (map1
  Int
  Int) map1)

;; "slide_eq"
(assert
  (forall ((a map1) (first Int))
    (! (= (slide a first first) a) :pattern ((slide a first first)) )))

;; "slide_def"
(assert
  (forall ((a map1) (old_first Int) (new_first Int))
    (! (and
         (forall ((i Int))
           (! (= (get (slide a old_first new_first) i) (get
                                                         a
                                                         (- i (- new_first old_first)))) :pattern (
           (get
             (slide a old_first new_first)
             i)) ))
         (forall ((new_last Int))
           (! (=>
                (has_bounds a old_first (- new_last (- new_first old_first)))
                (has_bounds (slide a old_first new_first) new_first new_last)) :pattern (
           (has_bounds
             (slide a old_first new_first)
             new_first
             new_last)) ))) :pattern ((slide a old_first new_first)) )))

;; "slice"
(declare-fun slice (map1
  Int
  Int) map1)

;; "slice_eq"
(assert
  (forall ((a map1) (f Int) (l Int))
    (! (=> (has_bounds a f l) (= (slice a f l) a)) :pattern ((slice a f l)
    (has_bounds a f l)) )))

;; "slice_slice"
(assert
  (forall ((a map1) (f1 Int) (l1 Int) (f2 Int) (l2 Int))
    (! (=>
         (and (<= f1 f2) (<= l2 l1))
         (= (slice (slice a f1 l1) f2 l2) (slice a f2 l2))) :pattern (
    (slice
      (slice a f1 l1)
      f2
      l2)) )))

;; "slice_def"
(assert
  (forall ((a map1) (f Int) (l Int))
    (! (forall ((i Int))
         (! (=> (and (<= f i) (<= i l)) (= (get (slice a f l) i) (get a i))) :pattern (
         (get
           (slice a f l)
           i)) :pattern ((get a i)) )) :pattern ((slice a f l)) )))

;; "slice_has_bounds"
(assert
  (forall ((a map1) (f Int) (l Int))
    (! (has_bounds (slice a f l) f l) :pattern ((has_bounds
                                                  (slice a f l)
                                                  f
                                                  l)) )))

;; "dk_valid_for_decaps"
(declare-fun dk_valid_for_decaps (map1) Bool)

(declare-const c map1)

(declare-const dk map1)

(declare-sort tinteger_32B 0)

;; "tinteger_32B'int"
(declare-fun tinteger_32Bqtint (tinteger_32B) Int)

;; "tinteger_32B'axiom"
(assert
  (forall ((i tinteger_32B))
    (and
      (<= (- 2147483648) (tinteger_32Bqtint i))
      (<= (tinteger_32Bqtint i) 2147483647))))

;; "in_range"
(define-fun in_range ((x Int)) Bool
  (and (<= (- 2147483648) x) (<= x 2147483647)))

;; "to_rep"
(define-fun to_rep1 ((x tinteger_32B)) Int
  (tinteger_32Bqtint x))

;; "of_rep"
(declare-fun of_rep1 (Int) tinteger_32B)

;; "inversion_axiom"
(assert
  (forall ((x tinteger_32B))
    (! (= (of_rep1 (to_rep1 x)) x) :pattern ((to_rep1 x)) )))

;; "range_axiom"
(assert
  (forall ((x tinteger_32B))
    (! (in_range (to_rep1 x)) :pattern ((to_rep1 x)) )))

;; "coerce_axiom"
(assert
  (forall ((x Int))
    (! (=> (in_range x) (= (to_rep1 (of_rep1 x)) x)) :pattern ((to_rep1
                                                                 (of_rep1 x))) )))

;; "dk_valid_for_decaps__post_axiom"
(assert true)

;; Goal "def'vc"
;; File "mlkem.ads", line 138, characters 0-0
(assert
  (not
  (forall ((dk_pke map1) (ek_pke map1) (h map1) (z map1) (m_tick map1) (k_bar map1) (kr map1) (c_tick map1) (result__ map1))
    (=>
      (has_bounds c 0 1087)
      (=>
        (has_bounds dk 0 2399)
        (=>
          (= (dk_valid_for_decaps dk) true)
          (=>
            (has_bounds dk_pke 0 1151)
            (=>
              (has_bounds ek_pke 0 1183)
              (=>
                (has_bounds h 0 31)
                (=>
                  (has_bounds z 0 31)
                  (=>
                    (has_bounds m_tick 0 31)
                    (=>
                      (has_bounds k_bar 0 31)
                      (=>
                        (has_bounds kr 0 63)
                        (=>
                          (has_bounds c_tick 0 1087)
                          (=>
                            (has_bounds result__ 0 31)
                            (=>
                              (=>
                                (<= 0 1151)
                                (and
                                  (and (<= 0 0) (<= 0 2399))
                                  (and (<= 0 1151) (<= 1151 2399))))
                              (forall ((dk_pke1 map1))
                                (=>
                                  (= dk_pke1 (slice dk 0 1151))
                                  (=>
                                    (=>
                                      (<= 1152 2335)
                                      (and
                                        (and (<= 0 1152) (<= 1152 2399))
                                        (and (<= 0 2335) (<= 2335 2399))))
                                    (forall ((ek_pke1 map1))
                                      (=>
                                        (= ek_pke1 (slide
                                                     (slice dk 1152 2335)
                                                     1152
                                                     0))
                                        (=>
                                          (=>
                                            (<= 2336 2367)
                                            (and
                                              (and
                                                (<= 0 2336)
                                                (<= 2336 2399))
                                              (and
                                                (<= 0 2367)
                                                (<= 2367 2399))))
                                          (forall ((h1 map1))
                                            (=>
                                              (= h1 (slide
                                                      (slice dk 2336 2367)
                                                      2336
                                                      0))
                                              (=>
                                                (<= 2368 2399)
                                                (and
                                                  (and
                                                    (<= 0 2368)
                                                    (<= 2368 2399))
                                                  (and
                                                    (<= 0 2399)
                                                    (<= 2399 2399))))))))))))))))))))))))))))

(check-sat)
